c User generated cnf file
p cnf 11 54
6 -3 5 0 
10 11 -11 0 
6 -10 9 0 
10 -10 6 0 
9 10 -7 0 
10 -7 5 0 
6 -5 4 0 
1 -10 2 0 
9 6 -9 0 
10 11 -10 0 
3 -11 9 0 
-5 5 11 0 
-9 1 6 0 
6 10 -7 0 
6 -8 5 0 
8 -8 1 0 
1 4 -2 0 
6 7 -10 0 
-10 3 5 0 
-10 6 2 0 
6 2 -3 0 
9 -5 8 0 
-11 6 6 0 
11 -2 11 0 
1 -5 10 0 
9 4 -7 0 
-4 8 1 0 
10 -8 5 0 
3 2 -10 0 
6 9 -10 0 
10 -6 1 0 
2 -5 11 0 
-7 5 6 0 
-1 1 8 0 
6 1 -7 0 
7 8 -3 0 
11 2 -11 0 
9 4 -3 0 
3 7 -5 0 
-5 2 4 0 
-9 2 10 0 
-10 2 10 0 
1 6 -3 0 
2 -1 2 0 
-4 3 5 0 
-6 4 2 0 
8 2 -6 0 
4 11 -2 0 
-1 6 9 0 
7 -11 2 0 
4 6 -6 0 
9 -6 5 0 
2 8 -3 0 
7 -8 4 0 
